p wcnf 140 1600
7 -134 138 0
3 -129 -137 0
7 -127 128 0
4 -127 140 0
2 -125 -140 0
3 -124 -130 0
8 -124 -129 0
3 -124 128 0
8 -124 135 0
3 -121 134 0
4 -120 -139 0
5 -120 134 0
6 -119 -120 0
7 -119 128 0
3 -117 -122 0
4 -117 132 0
8 -116 -122 0
10 -116 126 0
10 -115 -120 0
7 -115 125 0
5 -115 136 0
8 -114 -126 0
4 -114 -124 0
2 -114 120 0
7 -113 -140 0
9 -110 122 0
9 -110 137 0
5 -108 -140 0
6 -108 -122 0
3 -107 -108 0
10 -107 119 0
4 -107 137 0
5 -106 -139 0
7 -106 -131 0
7 -106 -130 0
6 -106 -116 0
9 -106 132 0
4 -105 -132 0
8 -104 -136 0
7 -104 -115 0
7 -104 -113 0
2 -103 -137 0
2 -103 -130 0
3 -103 -127 0
8 -103 120 0
4 -103 122 0
5 -102 -130 0
7 -102 -110 0
4 -101 -109 0
5 -100 -133 0
4 -100 -107 0
7 -100 122 0
3 -100 134 0
6 -100 138 0
8 -99 -135 0
9 -99 -119 0
6 -98 -128 0
7 -98 -110 0
4 -98 -109 0
2 -98 108 0
9 -98 127 0
3 -97 -129 0
5 -97 -119 0
4 -97 -98 0
9 -97 138 0
1 -96 104 0
9 -96 118 0
8 -95 -128 0
5 -95 -107 0
8 -95 -100 0
6 -95 112 0
2 -95 114 0
9 -94 -107 0
7 -93 -138 0
3 -93 121 0
7 -92 -133 0
10 -92 -128 0
7 -92 -121 0
4 -92 -109 0
3 -92 118 0
2 -91 -114 0
7 -91 99 0
9 -91 110 0
4 -91 130 0
3 -91 131 0
8 -90 -128 0
3 -90 -124 0
8 -90 -96 0
5 -90 114 0
5 -89 -139 0
9 -89 -120 0
4 -89 120 0
8 -88 -115 0
3 -88 -92 0
7 -88 112 0
7 -88 116 0
4 -87 -90 0
7 -86 -139 0
5 -85 -121 0
7 -85 -99 0
4 -85 -98 0
1 -85 -97 0
8 -85 120 0
3 -85 124 0
7 -85 130 0
1 -85 134 0
10 -84 -111 0
7 -84 90 0
8 -84 102 0
4 -84 125 0
9 -84 132 0
9 -84 140 0
9 -83 -131 0
8 -83 -112 0
3 -83 119 0
2 -82 -86 0
6 -82 96 0
4 -81 -111 0
9 -81 -86 0
1 -81 104 0
9 -80 85 0
7 -80 86 0
4 -80 90 0
7 -79 -140 0
10 -79 97 0
1 -79 121 0
4 -79 139 0
3 -78 -129 0
7 -78 -91 0
8 -78 -87 0
10 -78 -86 0
1 -78 106 0
8 -78 115 0
8 -78 125 0
4 -78 129 0
5 -77 -113 0
8 -77 81 0
3 -77 124 0
1 -76 -96 0
6 -76 79 0
6 -75 -133 0
9 -75 -80 0
4 -75 -78 0
6 -75 76 0
7 -75 87 0
6 -75 94 0
7 -75 113 0
3 -75 130 0
9 -74 95 0
6 -74 98 0
3 -74 101 0
8 -74 110 0
3 -74 128 0
6 -73 -129 0
5 -73 -111 0
3 -73 89 0
7 -72 -112 0
8 -72 -81 0
5 -72 -74 0
4 -72 73 0
6 -72 90 0
5 -72 111 0
4 -72 113 0
4 -72 116 0
2 -72 121 0
7 -72 131 0
7 -71 -122 0
9 -71 -118 0
9 -71 -86 0
8 -71 115 0
5 -71 132 0
5 -70 -140 0
7 -70 -90 0
8 -70 -82 0
10 -70 85 0
4 -70 94 0
4 -70 96 0
7 -70 116 0
7 -69 -130 0
3 -69 -71 0
2 -69 71 0
9 -69 72 0
2 -69 104 0
5 -69 117 0
6 -68 -123 0
6 -68 -122 0
6 -68 -112 0
2 -68 -109 0
3 -68 -90 0
1 -68 -71 0
5 -68 87 0
8 -68 116 0
5 -68 117 0
8 -68 122 0
1 -67 -134 0
6 -67 -133 0
4 -67 -126 0
8 -67 -117 0
6 -67 -112 0
3 -67 -106 0
6 -67 -101 0
10 -67 -80 0
8 -67 -79 0
3 -67 -76 0
8 -67 97 0
7 -67 119 0
6 -67 136 0
2 -66 -136 0
4 -66 -91 0
3 -66 -75 0
4 -66 78 0
5 -66 85 0
2 -66 92 0
5 -66 106 0
9 -65 -129 0
6 -65 -111 0
9 -65 -110 0
5 -65 -106 0
8 -65 -80 0
2 -65 84 0
5 -65 115 0
3 -64 -136 0
9 -64 -114 0
9 -64 -111 0
9 -64 -100 0
9 -64 99 0
6 -64 115 0
4 -64 126 0
7 -64 133 0
1 -63 -100 0
6 -63 -72 0
3 -63 65 0
10 -62 -112 0
4 -62 -103 0
4 -62 -100 0
8 -62 63 0
1 -62 73 0
9 -62 103 0
8 -62 123 0
4 -62 127 0
2 -62 137 0
2 -61 -134 0
8 -61 -124 0
2 -61 -114 0
6 -61 -97 0
7 -61 -87 0
8 -61 -86 0
5 -61 -83 0
2 -61 -75 0
5 -61 -71 0
7 -61 118 0
6 -60 -121 0
7 -60 -114 0
5 -60 84 0
5 -60 116 0
6 -59 -119 0
5 -59 -115 0
10 -59 -72 0
9 -59 84 0
1 -59 90 0
10 -58 -123 0
6 -58 -98 0
3 -58 -94 0
10 -58 -82 0
9 -58 -79 0
6 -58 -71 0
7 -58 -67 0
9 -58 86 0
5 -58 90 0
6 -58 101 0
3 -58 124 0
6 -57 -123 0
7 -57 -116 0
1 -57 83 0
7 -57 92 0
3 -57 108 0
7 -57 115 0
5 -56 -135 0
8 -56 -131 0
7 -56 -124 0
10 -56 -112 0
4 -56 -66 0
3 -56 66 0
7 -56 92 0
9 -56 115 0
7 -56 116 0
3 -55 -139 0
3 -55 -95 0
7 -55 -92 0
2 -55 67 0
4 -55 110 0
7 -54 -88 0
7 -54 87 0
6 -54 125 0
7 -54 127 0
5 -54 133 0
2 -54 134 0
4 -54 136 0
4 -53 -105 0
6 -53 -85 0
9 -53 76 0
6 -53 102 0
2 -53 127 0
6 -52 -135 0
6 -52 -131 0
8 -52 -112 0
8 -52 -72 0
3 -52 66 0
3 -52 70 0
6 -52 86 0
9 -52 114 0
3 -52 118 0
9 -51 -140 0
3 -51 -94 0
9 -51 60 0
7 -51 77 0
9 -51 100 0
2 -51 108 0
9 -51 120 0
6 -50 -90 0
3 -50 -84 0
3 -50 64 0
3 -50 75 0
8 -50 104 0
8 -50 133 0
9 -49 -125 0
4 -49 -103 0
8 -49 -84 0
3 -49 -63 0
7 -49 -61 0
4 -49 74 0
1 -48 -92 0
3 -48 -69 0
5 -48 68 0
6 -48 82 0
8 -48 85 0
3 -48 116 0
4 -48 122 0
10 -47 -105 0
6 -47 -95 0
9 -47 81 0
9 -47 115 0
8 -47 116 0
8 -47 134 0
2 -46 -119 0
6 -46 -80 0
5 -46 61 0
1 -45 -102 0
7 -45 -91 0
5 -45 65 0
7 -45 74 0
9 -45 77 0
7 -45 83 0
9 -45 90 0
7 -45 112 0
4 -45 127 0
7 -44 -132 0
10 -44 -98 0
3 -44 -92 0
9 -44 -81 0
6 -44 -75 0
6 -44 -71 0
9 -44 70 0
8 -44 71 0
10 -44 79 0
5 -44 90 0
6 -44 91 0
3 -44 108 0
8 -44 127 0
6 -43 -133 0
7 -43 -99 0
7 -43 -97 0
5 -43 -68 0
5 -43 44 0
5 -43 68 0
6 -43 73 0
1 -43 81 0
9 -43 117 0
7 -42 -128 0
7 -42 -102 0
4 -42 -84 0
3 -42 -82 0
6 -42 -69 0
10 -42 -68 0
2 -42 -66 0
3 -42 -62 0
4 -42 -58 0
9 -42 76 0
3 -42 99 0
5 -42 107 0
8 -42 137 0
8 -42 140 0
10 -41 -81 0
7 -41 -77 0
6 -41 43 0
10 -41 72 0
2 -41 99 0
2 -41 109 0
2 -41 112 0
9 -41 119 0
7 -41 129 0
9 -40 -136 0
6 -40 -132 0
3 -40 -131 0
4 -40 -106 0
10 -40 -93 0
8 -40 -56 0
4 -40 53 0
9 -40 65 0
5 -40 77 0
1 -40 110 0
3 -39 -140 0
8 -39 -129 0
6 -39 -126 0
3 -39 -120 0
9 -39 -103 0
9 -39 -84 0
5 -39 -82 0
7 -39 -75 0
1 -39 -71 0
10 -39 51 0
5 -39 72 0
8 -39 93 0
10 -39 137 0
2 -39 139 0
5 -38 -117 0
9 -38 -43 0
2 -38 -42 0
6 -38 48 0
1 -38 83 0
1 -37 -128 0
4 -37 -87 0
9 -37 -84 0
6 -37 -69 0
5 -37 -47 0
3 -37 86 0
6 -37 104 0
4 -36 -81 0
5 -36 -75 0
5 -36 -72 0
8 -36 -55 0
6 -36 120 0
7 -36 123 0
5 -36 137 0
2 -36 140 0
9 -35 -121 0
4 -35 -109 0
10 -35 -73 0
4 -35 -52 0
1 -35 -36 0
1 -35 40 0
4 -35 84 0
6 -35 115 0
8 -35 125 0
4 -35 132 0
6 -34 -125 0
3 -34 -38 0
3 -34 99 0
8 -34 101 0
8 -33 -54 0
3 -33 -52 0
8 -33 59 0
2 -33 120 0
2 -32 -112 0
4 -32 -91 0
6 -32 -49 0
4 -32 -35 0
9 -32 52 0
9 -32 91 0
8 -31 -140 0
5 -31 -129 0
6 -31 -77 0
4 -31 -70 0
2 -31 -65 0
2 -31 48 0
5 -31 70 0
10 -31 79 0
5 -31 99 0
5 -31 125 0
4 -30 -120 0
5 -30 -116 0
5 -30 -95 0
7 -30 -75 0
10 -30 -74 0
4 -30 -61 0
10 -30 -44 0
6 -30 106 0
6 -30 119 0
2 -29 -138 0
4 -29 -64 0
4 -29 42 0
5 -29 68 0
2 -29 76 0
5 -29 77 0
6 -29 130 0
5 -28 -84 0
10 -28 -61 0
8 -28 -42 0
4 -28 -38 0
9 -28 123 0
6 -28 127 0
8 -27 -125 0
5 -27 -121 0
9 -27 -65 0
9 -27 103 0
6 -27 104 0
5 -27 115 0
9 -26 -140 0
9 -26 -137 0
9 -26 -98 0
3 -26 -90 0
5 -26 -71 0
4 -26 -61 0
9 -26 66 0
4 -26 98 0
7 -26 125 0
9 -26 138 0
9 -25 -110 0
3 -25 -103 0
1 -25 -74 0
3 -25 -36 0
6 -25 -31 0
5 -25 39 0
4 -25 59 0
10 -25 69 0
9 -25 75 0
8 -25 78 0
10 -24 -137 0
8 -24 -114 0
2 -24 -108 0
8 -24 -72 0
4 -24 -39 0
10 -24 -34 0
4 -24 -32 0
4 -24 47 0
9 -24 55 0
8 -24 71 0
7 -24 85 0
8 -24 104 0
8 -24 105 0
6 -24 109 0
1 -23 -129 0
2 -23 -108 0
10 -23 -91 0
10 -23 -83 0
6 -23 -75 0
7 -23 -54 0
8 -23 -49 0
5 -23 -44 0
9 -23 -41 0
9 -23 24 0
7 -23 43 0
5 -23 64 0
3 -23 82 0
1 -23 83 0
4 -23 104 0
2 -23 107 0
8 -23 133 0
4 -23 134 0
9 -22 -112 0
10 -22 -90 0
3 -22 -72 0
3 -22 -42 0
9 -22 -30 0
5 -22 26 0
6 -22 33 0
8 -22 133 0
3 -21 -139 0
3 -21 -121 0
6 -21 -102 0
1 -21 -81 0
9 -21 -41 0
7 -21 -30 0
3 -21 27 0
8 -21 47 0
6 -21 65 0
8 -21 85 0
5 -21 124 0
5 -20 -139 0
3 -20 -114 0
4 -20 -104 0
3 -20 -57 0
9 -20 -33 0
8 -20 25 0
5 -20 66 0
10 -20 105 0
2 -19 -139 0
7 -19 -92 0
8 -19 -87 0
5 -19 -71 0
6 -19 -58 0
7 -19 -53 0
7 -19 -31 0
8 -19 30 0
7 -19 38 0
2 -19 50 0
4 -19 98 0
5 -19 112 0
4 -19 120 0
6 -19 130 0
10 -18 -122 0
5 -18 -111 0
4 -18 -102 0
6 -18 -100 0
6 -18 -90 0
3 -18 -86 0
3 -18 -75 0
4 -18 -63 0
7 -18 -41 0
6 -18 -40 0
6 -18 -32 0
1 -18 -24 0
8 -18 92 0
5 -18 103 0
8 -18 110 0
4 -18 120 0
4 -18 121 0
9 -18 126 0
10 -18 134 0
2 -18 136 0
5 -17 -133 0
5 -17 -132 0
8 -17 -98 0
1 -17 -92 0
3 -17 -91 0
5 -17 -90 0
2 -17 -78 0
6 -17 -33 0
9 -17 50 0
6 -17 91 0
2 -17 104 0
8 -17 107 0
9 -17 139 0
5 -16 -103 0
5 -16 -58 0
6 -16 -57 0
7 -16 119 0
6 -16 134 0
9 -15 -134 0
4 -15 -133 0
2 -15 -103 0
4 -15 27 0
4 -15 45 0
10 -15 62 0
8 -15 69 0
2 -15 115 0
3 -14 -65 0
2 -14 -51 0
2 -14 -27 0
3 -14 18 0
3 -14 20 0
5 -14 21 0
8 -14 34 0
1 -14 62 0
6 -14 72 0
10 -14 90 0
5 -13 -138 0
7 -13 -131 0
6 -13 -61 0
4 -13 26 0
3 -13 32 0
7 -13 51 0
2 -13 91 0
2 -13 101 0
2 -13 127 0
6 -12 -135 0
7 -12 -123 0
9 -12 -97 0
2 -12 -94 0
5 -12 -89 0
3 -12 -21 0
3 -12 37 0
9 -12 44 0
6 -12 58 0
3 -12 93 0
6 -11 -113 0
8 -11 -49 0
6 -11 61 0
7 -11 109 0
8 -11 117 0
8 -11 119 0
9 -10 -97 0
4 -10 -42 0
5 -10 -38 0
10 -10 24 0
8 -10 80 0
5 -10 92 0
5 -10 96 0
5 -9 -118 0
1 -9 -114 0
8 -9 -78 0
7 -9 38 0
7 -9 41 0
9 -9 53 0
9 -9 55 0
9 -9 84 0
5 -9 129 0
5 -9 132 0
7 -9 133 0
6 -8 -139 0
10 -8 -133 0
9 -8 -126 0
9 -8 -118 0
8 -8 -113 0
6 -8 -80 0
2 -8 -11 0
5 -8 9 0
3 -8 34 0
7 -8 54 0
2 -7 -55 0
2 -7 58 0
4 -7 61 0
1 -7 93 0
4 -7 101 0
9 -7 127 0
1 -6 -75 0
3 -6 -64 0
4 -6 14 0
5 -6 52 0
7 -6 86 0
4 -6 91 0
3 -6 95 0
4 -6 97 0
2 -6 106 0
2 -6 130 0
3 -5 -102 0
9 -5 -100 0
6 -5 -74 0
7 -5 -62 0
7 -5 6 0
3 -5 11 0
7 -5 48 0
6 -5 91 0
1 -5 111 0
6 -4 -102 0
2 -4 -97 0
2 -4 -71 0
9 -4 -65 0
4 -4 -53 0
8 -4 -26 0
1 -4 -23 0
5 -4 -19 0
2 -4 -8 0
2 -4 63 0
8 -4 98 0
10 -4 126 0
2 -3 -121 0
10 -3 -118 0
3 -3 -109 0
6 -3 -107 0
7 -3 -82 0
7 -3 -64 0
8 -3 -62 0
10 -3 -32 0
7 -3 -5 0
10 -3 -4 0
3 -3 43 0
6 -3 51 0
6 -3 58 0
9 -3 97 0
3 -3 121 0
8 -3 123 0
6 -2 -140 0
8 -2 -72 0
8 -2 -67 0
2 -2 -47 0
9 -2 -46 0
10 -2 -24 0
10 -2 71 0
3 -2 73 0
7 -2 80 0
1 -2 106 0
6 -2 109 0
9 -2 139 0
2 -1 -108 0
4 -1 -89 0
8 -1 -81 0
3 -1 -67 0
4 -1 -59 0
2 -1 -48 0
8 -1 -30 0
9 -1 46 0
7 -1 69 0
6 -1 103 0
9 -1 116 0
4 -1 139 0
6 1 -98 0
2 1 -87 0
10 1 -55 0
2 1 -51 0
10 1 -6 0
3 1 53 0
9 1 65 0
6 1 121 0
1 1 123 0
7 1 130 0
6 2 -124 0
9 2 -50 0
7 2 -34 0
6 2 -26 0
2 2 6 0
4 2 51 0
7 2 56 0
7 2 71 0
3 2 91 0
8 2 100 0
2 2 106 0
2 2 124 0
1 3 -113 0
4 3 -106 0
2 3 -64 0
8 3 -39 0
4 3 -34 0
9 3 -14 0
5 3 53 0
3 3 59 0
3 3 92 0
10 3 110 0
4 3 117 0
3 3 138 0
2 4 -18 0
4 4 -13 0
5 4 -7 0
1 4 79 0
9 4 120 0
6 5 -117 0
7 5 -104 0
5 5 -84 0
5 5 -83 0
4 5 -73 0
1 5 -66 0
6 5 -63 0
8 5 -47 0
7 5 41 0
3 5 68 0
10 5 83 0
5 5 84 0
3 5 110 0
1 5 116 0
5 5 118 0
7 5 134 0
3 5 135 0
4 6 -138 0
9 6 -71 0
2 6 -46 0
8 6 -42 0
2 6 11 0
4 6 40 0
8 6 68 0
5 6 110 0
6 6 139 0
9 7 -135 0
8 7 -126 0
1 7 -122 0
9 7 -70 0
6 7 13 0
6 7 24 0
6 7 40 0
1 7 45 0
10 7 61 0
10 7 94 0
2 7 101 0
5 7 119 0
8 7 130 0
8 7 133 0
7 7 138 0
8 8 -124 0
4 8 -120 0
9 8 -102 0
8 8 -94 0
8 8 -83 0
6 8 -52 0
10 8 -29 0
2 8 25 0
5 8 34 0
2 8 55 0
8 8 61 0
7 8 96 0
5 8 111 0
6 8 116 0
2 9 -116 0
10 9 -91 0
5 9 -51 0
9 9 30 0
1 9 61 0
4 9 74 0
5 9 77 0
6 9 78 0
9 9 104 0
5 9 133 0
6 10 -130 0
9 10 -126 0
6 10 -118 0
10 10 -117 0
6 10 -97 0
4 10 -90 0
7 10 -77 0
4 10 -75 0
7 10 -65 0
6 10 12 0
2 10 44 0
5 10 45 0
2 10 122 0
2 11 -118 0
6 11 -111 0
7 11 -80 0
2 11 -24 0
4 11 -18 0
3 11 27 0
6 11 30 0
9 11 101 0
4 12 -137 0
6 12 -103 0
4 12 -77 0
3 12 -36 0
6 12 -24 0
6 12 21 0
7 12 40 0
2 13 -101 0
5 13 -77 0
3 13 -14 0
7 13 22 0
4 13 33 0
8 13 47 0
7 13 59 0
9 14 -139 0
2 14 -134 0
4 14 -123 0
3 14 -117 0
8 14 -88 0
9 14 -80 0
4 14 -62 0
3 14 -58 0
1 14 -49 0
5 14 -30 0
8 14 30 0
7 14 34 0
6 14 78 0
2 14 111 0
9 14 112 0
3 15 -117 0
1 15 -45 0
3 15 -42 0
7 15 -27 0
4 15 33 0
5 15 109 0
3 16 -137 0
9 16 -76 0
3 16 -29 0
4 16 -26 0
5 16 37 0
4 16 66 0
1 16 80 0
8 16 91 0
2 16 116 0
7 17 -134 0
7 17 -121 0
3 17 -107 0
10 17 -82 0
9 17 -75 0
1 17 -55 0
8 17 -40 0
3 17 25 0
4 17 35 0
8 17 42 0
7 17 62 0
1 17 63 0
5 17 65 0
4 17 79 0
3 17 102 0
4 17 115 0
5 17 140 0
3 18 -124 0
7 18 -110 0
3 18 -92 0
6 18 -51 0
2 18 -23 0
5 18 66 0
5 18 67 0
4 18 75 0
9 19 -136 0
9 19 -78 0
7 19 -25 0
9 19 78 0
7 19 102 0
8 19 112 0
6 19 129 0
4 19 130 0
10 20 -104 0
5 20 -62 0
3 20 -53 0
10 20 -52 0
4 20 -48 0
5 20 -23 0
4 20 62 0
2 20 75 0
3 20 109 0
4 21 -109 0
6 21 -93 0
6 21 -47 0
6 21 -39 0
10 21 -30 0
10 21 -29 0
7 21 84 0
6 21 87 0
3 21 99 0
3 21 117 0
7 22 -114 0
7 22 -113 0
7 22 -106 0
1 22 -65 0
5 22 50 0
6 22 97 0
7 22 119 0
4 22 129 0
3 22 140 0
4 23 -137 0
9 23 -122 0
6 23 -119 0
4 23 -118 0
5 23 -108 0
8 23 -85 0
4 23 -82 0
7 23 -41 0
3 23 31 0
6 23 34 0
8 23 43 0
4 23 101 0
9 24 -103 0
5 24 -71 0
9 24 -57 0
5 24 -47 0
4 24 -41 0
9 24 76 0
2 24 87 0
10 24 103 0
1 24 127 0
4 24 134 0
7 25 -98 0
7 25 -95 0
2 25 -82 0
7 25 -78 0
3 25 -75 0
7 25 -56 0
4 25 -34 0
6 25 42 0
9 25 47 0
8 25 65 0
5 25 70 0
5 25 92 0
1 26 -64 0
8 26 -57 0
2 26 -40 0
4 26 28 0
6 26 40 0
4 26 46 0
10 26 54 0
4 26 93 0
8 26 109 0
9 26 113 0
8 26 114 0
7 26 118 0
4 26 123 0
2 26 126 0
6 26 130 0
5 27 -121 0
2 27 -55 0
6 27 -52 0
9 27 -38 0
9 27 -37 0
3 27 -32 0
10 27 35 0
6 27 38 0
5 27 99 0
7 27 111 0
9 27 128 0
10 28 -85 0
6 28 -35 0
7 28 81 0
5 28 107 0
1 28 113 0
7 28 123 0
3 28 127 0
3 28 129 0
2 28 138 0
8 29 -119 0
6 29 -90 0
1 29 -33 0
2 29 42 0
4 29 47 0
10 29 62 0
9 29 96 0
9 29 122 0
4 30 -120 0
1 30 -113 0
5 30 -94 0
8 30 -77 0
3 30 -75 0
10 30 -55 0
7 30 95 0
1 30 108 0
3 31 -122 0
7 31 -115 0
6 31 -93 0
7 31 -40 0
4 31 57 0
5 31 92 0
6 31 106 0
9 31 113 0
2 31 128 0
1 32 -97 0
9 32 -91 0
8 32 -81 0
3 32 -57 0
2 32 -40 0
9 32 -36 0
1 32 45 0
6 32 53 0
9 32 65 0
2 32 121 0
9 33 -133 0
9 33 -104 0
1 33 -103 0
8 33 -77 0
3 33 -64 0
2 33 89 0
3 33 96 0
10 33 113 0
3 33 126 0
3 34 -77 0
7 34 -73 0
4 34 -51 0
5 34 -46 0
4 34 -43 0
9 34 56 0
2 34 67 0
6 35 -132 0
4 35 -129 0
7 35 -111 0
5 35 -100 0
6 35 -87 0
7 35 -37 0
4 35 36 0
4 35 47 0
9 35 64 0
5 35 121 0
3 36 -136 0
9 36 -77 0
1 36 -68 0
2 36 48 0
1 36 66 0
9 36 68 0
10 36 75 0
2 36 103 0
7 36 111 0
2 37 -122 0
2 37 -107 0
9 37 -91 0
2 37 -83 0
5 37 -45 0
2 37 52 0
8 37 69 0
7 37 130 0
6 38 75 0
1 38 101 0
6 39 -120 0
6 39 -102 0
7 39 -95 0
10 39 -81 0
3 39 -69 0
2 39 86 0
5 40 -75 0
9 40 -69 0
5 40 -64 0
8 40 -59 0
9 40 59 0
8 40 64 0
10 40 93 0
8 40 94 0
9 40 96 0
2 41 -117 0
8 41 -62 0
8 41 50 0
2 41 58 0
9 41 72 0
5 41 73 0
3 41 80 0
1 41 99 0
4 41 121 0
4 41 130 0
5 42 -138 0
5 42 -129 0
1 42 -126 0
2 42 -113 0
1 42 -85 0
2 42 -61 0
7 42 -55 0
6 42 -49 0
7 42 -45 0
7 42 -44 0
9 42 79 0
8 42 138 0
2 43 -90 0
8 43 -53 0
3 43 -46 0
9 43 -45 0
7 43 55 0
1 44 -82 0
9 44 -81 0
5 44 -46 0
9 44 82 0
1 44 86 0
3 45 -116 0
7 45 -109 0
2 45 -83 0
2 45 -67 0
2 45 -63 0
4 45 61 0
2 45 90 0
5 45 110 0
6 45 140 0
6 46 -134 0
9 46 -127 0
7 46 -60 0
7 46 -58 0
9 46 -51 0
8 46 60 0
4 46 78 0
5 46 83 0
5 47 -139 0
10 47 -128 0
4 47 -102 0
3 47 -93 0
2 47 -58 0
2 47 65 0
5 47 121 0
1 47 125 0
7 47 130 0
5 48 -119 0
10 48 -109 0
2 48 -74 0
4 48 -67 0
10 48 93 0
4 48 95 0
10 48 122 0
1 48 124 0
5 49 -129 0
1 49 -101 0
4 49 -99 0
6 49 58 0
5 49 61 0
9 49 73 0
2 49 95 0
4 49 101 0
6 49 130 0
8 50 -118 0
3 50 -100 0
4 50 -94 0
1 50 67 0
8 50 107 0
8 50 119 0
1 51 63 0
2 51 124 0
10 52 -136 0
2 52 -109 0
3 52 -94 0
5 52 -81 0
3 52 -70 0
9 52 -65 0
9 52 -64 0
2 52 -61 0
10 52 71 0
3 52 136 0
2 53 -134 0
4 53 -119 0
3 53 -103 0
2 53 -102 0
8 53 -75 0
4 53 64 0
6 53 67 0
4 53 71 0
8 53 97 0
5 53 101 0
4 53 103 0
2 53 115 0
10 53 125 0
2 54 -140 0
4 54 -129 0
3 54 -117 0
2 54 -97 0
2 54 -66 0
1 54 87 0
3 54 91 0
3 54 96 0
10 55 -137 0
4 55 -82 0
5 55 -77 0
4 55 -63 0
6 55 -58 0
4 55 70 0
3 55 106 0
7 56 -123 0
3 56 -66 0
6 56 -62 0
8 56 67 0
6 56 88 0
8 56 106 0
9 56 118 0
4 56 124 0
2 57 -85 0
5 57 -82 0
7 57 -58 0
9 57 99 0
9 58 -120 0
1 58 -115 0
10 58 -103 0
8 58 -88 0
2 58 69 0
4 58 74 0
2 58 82 0
4 58 138 0
5 59 -134 0
2 59 -124 0
5 59 -75 0
7 59 -65 0
2 59 78 0
8 59 127 0
2 59 140 0
5 60 -140 0
4 60 -126 0
4 60 -61 0
7 60 68 0
1 60 71 0
7 60 86 0
3 60 129 0
8 61 -84 0
3 61 -64 0
10 61 92 0
7 61 106 0
6 62 -136 0
2 62 -106 0
2 62 -97 0
3 62 -79 0
9 62 -64 0
10 63 -134 0
3 63 -95 0
9 63 -88 0
8 63 -77 0
4 63 70 0
3 63 71 0
9 63 76 0
7 63 95 0
7 63 140 0
1 64 -119 0
3 64 -104 0
5 64 -102 0
2 64 -97 0
1 64 -85 0
5 64 -84 0
6 64 -78 0
4 64 -68 0
9 64 73 0
3 64 122 0
4 64 123 0
5 65 -118 0
5 65 -110 0
2 65 -99 0
8 65 -73 0
5 65 -70 0
8 65 68 0
4 65 101 0
5 66 -122 0
9 66 -118 0
6 66 -113 0
4 66 -87 0
9 66 -70 0
8 66 79 0
3 66 122 0
7 66 140 0
2 67 -135 0
5 67 -87 0
6 68 -122 0
9 68 93 0
2 69 -133 0
6 69 -120 0
1 69 -102 0
6 69 98 0
7 69 116 0
1 69 122 0
1 70 -128 0
3 70 -123 0
4 70 -117 0
9 70 -81 0
5 70 -80 0
7 70 74 0
4 70 100 0
8 70 124 0
9 71 -76 0
2 71 79 0
3 71 98 0
7 71 124 0
5 72 -104 0
8 72 -99 0
6 72 -93 0
9 72 -80 0
2 72 89 0
5 72 111 0
7 73 -108 0
4 73 -105 0
3 73 -103 0
9 73 -86 0
8 73 77 0
8 73 83 0
7 73 88 0
9 73 128 0
5 74 -114 0
7 74 -89 0
5 74 80 0
2 74 81 0
8 74 86 0
5 75 -137 0
3 75 -112 0
2 75 -101 0
4 75 82 0
7 75 108 0
8 75 126 0
7 76 -130 0
6 76 -129 0
7 76 -107 0
8 76 -96 0
8 76 -86 0
4 76 -84 0
2 76 -83 0
5 76 86 0
9 76 90 0
2 76 129 0
7 77 -127 0
4 78 -140 0
8 78 -100 0
10 79 104 0
6 79 108 0
7 80 -130 0
8 80 -98 0
4 80 -97 0
4 80 -86 0
7 80 116 0
8 80 129 0
2 81 -82 0
2 81 105 0
9 82 -102 0
8 82 92 0
6 82 100 0
2 82 115 0
9 82 128 0
9 83 -131 0
8 83 -117 0
7 83 -116 0
6 83 -95 0
4 83 -91 0
4 83 -86 0
4 83 85 0
2 83 92 0
7 83 101 0
5 83 108 0
6 84 -110 0
6 84 -102 0
6 84 -92 0
3 84 89 0
9 84 114 0
4 84 133 0
2 85 -131 0
5 85 -122 0
1 85 -118 0
9 85 109 0
9 85 111 0
4 85 114 0
7 85 122 0
7 86 106 0
5 86 131 0
8 87 105 0
5 88 -115 0
3 88 -103 0
5 88 -96 0
7 88 91 0
2 88 113 0
4 88 114 0
5 88 119 0
8 89 -114 0
9 89 -97 0
8 89 94 0
2 89 103 0
3 89 128 0
8 89 130 0
8 89 133 0
7 89 137 0
4 90 -138 0
4 90 -114 0
3 91 -128 0
6 91 96 0
3 91 99 0
6 91 106 0
8 91 116 0
7 91 125 0
6 92 -139 0
7 92 -126 0
6 92 -95 0
10 92 113 0
4 92 118 0
3 92 121 0
4 93 -99 0
2 93 96 0
7 93 104 0
6 93 114 0
5 93 137 0
4 94 -119 0
7 94 -108 0
8 94 95 0
8 94 117 0
5 94 130 0
7 95 -128 0
5 95 -125 0
6 95 125 0
9 96 -135 0
4 96 -109 0
4 97 -134 0
6 97 -130 0
7 97 -103 0
6 97 105 0
8 97 116 0
3 97 123 0
8 98 -135 0
5 98 116 0
10 98 139 0
6 99 -134 0
10 99 -122 0
7 99 110 0
2 99 111 0
9 100 -138 0
10 100 -127 0
3 100 117 0
4 100 128 0
2 101 -130 0
9 101 125 0
9 102 -124 0
6 102 -108 0
3 103 -137 0
6 103 -135 0
5 103 -134 0
10 103 -125 0
9 103 -111 0
2 103 132 0
5 104 -133 0
5 104 135 0
10 105 -133 0
7 105 -112 0
8 106 -131 0
6 106 -130 0
4 106 -126 0
4 106 132 0
4 107 -138 0
7 107 -109 0
3 107 128 0
8 108 -132 0
6 109 -126 0
7 110 -117 0
8 111 -131 0
3 111 -119 0
8 111 -118 0
7 112 125 0
3 113 -117 0
1 113 116 0
10 113 140 0
4 114 119 0
9 115 117 0
9 115 120 0
10 115 128 0
2 116 125 0
4 116 136 0
4 118 -130 0
2 118 126 0
4 118 135 0
5 118 140 0
6 119 127 0
8 119 132 0
4 123 -129 0
3 123 130 0
6 124 -131 0
9 125 -133 0
6 125 139 0
9 126 -133 0
3 126 -129 0
3 126 129 0
2 127 132 0
10 128 -134 0
8 129 130 0
8 132 -138 0
7 132 -134 0
2 132 134 0
6 133 134 0
4 134 140 0
